7734
6940
565
8815
6429
7570
7027
5180
1561
6118
3250
7853
3247
4812
5613
10012
4984
5398
8427
991
2612
5313
3431
7009
8581
8232
6266
3045
8601
5182
5064
3610
2626
2604
9835
6592
8522
4455
5150
5307
5940
1508
5738
2653
5108
861
5464
5495
3032
3758
8635
